
Gurobi 6.5.2 (linux64) logging started Tue Sep  6 10:06:24 2016

Optimize a model with 101 rows, 663 columns and 1397 nonzeros
Coefficient statistics:
  Matrix range    [1e+00, 2e+00]
  Objective range [1e+00, 1e+02]
  Bounds range    [1e+00, 1e+00]
  RHS range       [1e+00, 1e+00]
Presolve removed 35 rows and 16 columns
Presolve time: 0.00s
Presolved: 66 rows, 647 columns, 1310 nonzeros
Variable types: 0 continuous, 647 integer (647 binary)
Found heuristic solution: objective 2346.0000000

Root relaxation: objective 8.360000e+02, 70 iterations, 0.00 seconds

    Nodes    |    Current Node    |     Objective Bounds      |     Work
 Expl Unexpl |  Obj  Depth IntInf | Incumbent    BestBd   Gap | It/Node Time

     0     0  836.00000    0    4 2346.00000  836.00000  64.4%     -    0s
H    0     0                     871.0000000  836.00000  4.02%     -    0s
H    0     0                     854.0000000  836.00000  2.11%     -    0s
     0     0  848.00000    0   14  854.00000  848.00000  0.70%     -    0s
     0     0  848.00000    0   12  854.00000  848.00000  0.70%     -    0s
     0     0  848.28571    0   25  854.00000  848.28571  0.67%     -    0s
     0     0  850.00000    0   12  854.00000  850.00000  0.47%     -    0s
     0     0  850.00000    0   13  854.00000  850.00000  0.47%     -    0s
     0     0  850.00000    0   12  854.00000  850.00000  0.47%     -    0s
     0     0  850.25000    0   22  854.00000  850.25000  0.44%     -    0s
     0     0  851.16667    0   10  854.00000  851.16667  0.33%     -    0s
     0     0  851.23529    0   29  854.00000  851.23529  0.32%     -    0s
     0     0  851.33333    0    6  854.00000  851.33333  0.31%     -    0s
     0     0  851.33333    0    6  854.00000  851.33333  0.31%     -    0s
     0     0  851.33333    0   11  854.00000  851.33333  0.31%     -    0s
     0     0  851.33333    0    5  854.00000  851.33333  0.31%     -    0s
     0     0  851.33333    0   12  854.00000  851.33333  0.31%     -    0s
     0     0  851.50000    0   14  854.00000  851.50000  0.29%     -    0s
     0     0  851.50000    0    6  854.00000  851.50000  0.29%     -    0s
     0     0  851.50000    0   12  854.00000  851.50000  0.29%     -    0s
     0     0  851.54545    0   22  854.00000  851.54545  0.29%     -    0s
     0     0  851.57143    0   22  854.00000  851.57143  0.28%     -    0s
     0     0  851.66667    0    6  854.00000  851.66667  0.27%     -    0s
     0     0  851.66667    0    6  854.00000  851.66667  0.27%     -    0s

Explored 0 nodes (370 simplex iterations) in 0.05 seconds
Thread count was 8 (of 8 available processors)

Optimal solution found (tolerance 1.00e-04)
Best objective 8.540000000000e+02, best bound 8.540000000000e+02, gap 0.0%
